# vtk DataFile Version 3.0
vtk output
ASCII
DATASET RECTILINEAR_GRID
DIMENSIONS 3 2 2
X_COORDINATES 3 float
0 1 2
Y_COORDINATES 2 float
0 1
Z_COORDINATES 2 float
0 1

CELL_DATA 2
SCALARS density float 1
LOOKUP_TABLE default
1 2

POINT_DATA 12
SCALARS u float 1
LOOKUP_TABLE default
1 2 3 1 2 3 1 2 3 1 2 3
SCALARS v float 1
LOOKUP_TABLE default
1 1 1 2 2 2 1 1 1 2 2 2
VECTORS velocity float
0 1 0
0 1 0
0 1 0
0 2 0
0 2 0
0 2 0
0 1 0
0 1 0
0 1 0
0 2 0
0 2 0
0 2 0
TENSORS stress float
1 0 0
0 1 0
0 0 1
1 0 0
0 1 0
0 0 1
1 0 0
0 1 0
0 0 1
2 0 0
0 2 0
0 0 2
2 0 0
0 2 0
0 0 2
2 0 0
0 2 0
0 0 2
1 0 0
0 1 0
0 0 1
1 0 0
0 1 0
0 0 1
1 0 0
0 1 0
0 0 1
2 0 0
0 2 0
0 0 2
2 0 0
0 2 0
0 0 2
2 0 0
0 2 0
0 0 2
